22      4       
10      10      10      10      
0       0       0       0       0       4       2       3       4       5       
6       9       6       5       9       1       11      
3       4       8       2       3       2       12      14      
8       1       8       4       6       1       6       
10      4       7       7       9       1       9       
1       5       9       4       2       1       7       
8       1       2       2       7       1       8       
1       9       5       3       9       2       10      19      
5       6       5       10      2       1       15      
1       2       1       5       5       1       13      
2       4       9       7       1       1       14      
6       7       8       9       7       1       17      
3       9       5       1       10      1       20      
7       10      5       6       4       1       16      
5       4       2       3       2       1       18      
10      10      1       1       7       1       19      
7       4       5       9       7       1       21      
3       7       5       3       4       1       22      
9       10      5       7       5       1       22      
1       6       9       10      5       1       22      
1       9       4       5       5       1       22      
0       0       0       0       0       0       
